(set-logic QF_S)
(declare-fun V10 () String )
(declare-fun V13 () String )
(declare-fun V32 () String )
(declare-fun V12 () String )
(declare-fun V29 () String )
(declare-fun V42 () String )
(declare-fun V35 () String )
(declare-fun V43 () String )
(declare-fun V40 () String )
(declare-fun V17 () String )
(declare-fun V6 () String )
(declare-fun V27 () String )
(declare-fun V9 () String )
(declare-fun V31 () String )
(declare-fun V18 () String )
(declare-fun V41 () String )
(declare-fun V20 () String )
(declare-fun V1 () String )
(declare-fun V36 () String )
(declare-fun V25 () String )
(declare-fun V23 () String )
(declare-fun V5 () String )
(declare-fun V14 () String )
(declare-fun V21 () String )
(declare-fun V28 () String )
(declare-fun V3 () String )
(declare-fun V8 () String )
(declare-fun V11 () String )
(declare-fun V7 () String )
(declare-fun V26 () String )
(declare-fun V0 () String )
(declare-fun V30 () String )
(declare-fun V2 () String )
(declare-fun V16 () String )
(declare-fun V44 () String )
(declare-fun V19 () String )
(declare-fun V4 () String )
(declare-fun V24 () String )
(declare-fun V22 () String )
(declare-fun V15 () String )
(declare-fun V37 () String )
(declare-fun V45 () String )
(assert (= "" "J" ) )
(assert (= "" V17 ) )
(assert (= "=" V7 ) )
(assert (= "A" V0 ) )
(assert (= "D" V5 ) )
(assert (= "J" V6 ) )
(assert (= V25 (str.++ (str.++ V44 "D" ) V45 ) ) )
(assert (= V37 (str.++ (str.++ V35 "j" ) V36 ) ) )
(assert (= V31 (str.++ (str.++ V35 "J" ) V36 ) ) )
(assert (= V14 (str.++ (str.++ V44 "d" ) V45 ) ) )
(assert (= V3 V10 ) )
(assert (= V27 (str.++ (str.++ V42 "a" ) V43 ) ) )
(assert (= V2 (str.++ (str.++ V42 "A" ) V43 ) ) )
(assert (= V4 (str.++ (str.++ V21 V22 ) V23 ) ) )
(assert (= V4 (str.++ (str.++ V16 V17 ) V18 ) ) )
(assert (= V4 (str.++ (str.++ V19 "A" ) V20 ) ) )
(assert (= V4 (str.++ (str.++ V8 V9 ) V10 ) ) )
(assert (= V4 (str.++ (str.++ V1 V2 ) V3 ) ) )
(assert (= (str.++ V14 V15 ) (str.++ (str.++ V30 V31 ) V32 ) ) )
(assert (= (str.++ V14 V15 ) (str.++ (str.++ V11 V12 ) V13 ) ) )
(assert (= (str.++ V27 V9 ) (str.++ (str.++ V40 "D" ) V41 ) ) )
(assert (= (str.++ V27 V9 ) (str.++ (str.++ V28 V15 ) V29 ) ) )
(assert (= (str.++ V27 V9 ) (str.++ (str.++ V24 V25 ) V26 ) ) )
( check-sat )
